 $CONTRL 
  SCFTYP=RHF EXETYP=RUN RUNTYP=ENERGY
! B3LYP in US means B3LYP5 in firefly
  DFTTYP=B3LYP5
  ICHARG=0 MULT=1 
  ITOL=30 ICUT=11
  INTTYP=HONDO MAXIT=200
  d5=.t.
  MOLPLT=.t.
! DUNNING DZP needs spherical d-functions
! ISPHER instead of D5 in firefly
!  ISPHER=1 
 $END

 $d5 d5=.f. $end
!$DFT
! NRAD=96
!$END

 $SYSTEM TIMLIM=2000 MWORDS=100 $END

 $ELPOT IEPOT=1 WHERE=PDC OUTPUT=PUNCH $END
 $PDC PTSEL=CHELPG CONSTR=NONE $END

 $GUESS GUESS=HUCKEL $END

 $basis 
! name from lib-file
   gbasis=N31 ngauss=6 npfunc=1 ndfunc=1 nffunc=1 
 $end

 $SCF 
  DIIS=.t. DIRSCF=.t. 
! in firefly nconv=6
! density convergency criterium for SCF
!   conv=1D-6 
!   npunch=2
 $END

 $DATA
ct-631.out
C1
C      6.0     -5.5534199474   -4.1741410755    3.2390971228 
H      1.0     -5.8815120988   -5.0216237308    2.6281485751 
H      1.0     -5.7285139150   -3.2651172222    2.6612469002 
H      1.0     -4.4760333882   -4.2760448912    3.4043632753 
C      6.0     -6.2936722559   -4.1349610883    4.5807445339 
H      1.0     -5.9653799802   -3.2652193843    5.1632110882 
H      1.0     -6.0331278920   -5.0226143071    5.1711019677 
C      6.0     -7.8283894009   -4.0888383748    4.4923915588 
H      1.0     -8.2001686645   -4.9329092694    3.8966992886 
O      8.0     -8.3053868363   -2.8674710514    3.8867498817 
O      8.0     -8.1680830581   -2.9876993022    2.4424701532 
H      1.0     -9.1045780971   -2.9838910175    2.1911030201 
C      6.0     -8.4615614065   -4.0989825318    5.8562289992 
H      1.0     -8.2191431663   -3.2515345406    6.4960237670 
C      6.0     -9.2619609251   -5.0741239727    6.3129324118 
H      1.0     -9.4888627824   -5.9106141178    5.6554340582 
C      6.0     -9.8449006461   -5.0817282987    7.6460678335 
H      1.0     -9.5968202383   -4.2207112601    8.2646220478 
C      6.0    -10.6439953241   -6.0242960382    8.1761840934 
H      1.0    -10.9996981019   -5.8630612851    9.1933532447 
C      6.0    -11.1369116460   -7.2916359953    7.5352935527 
H      1.0    -10.7869017395   -8.1473371472    8.1300838117 
H      1.0    -10.7132914362   -7.4207397862    6.5350194158 
C      6.0    -12.6738331379   -7.3465570748    7.4562151577 
H      1.0    -13.0109452700   -8.2982011656    7.0337318157 
H      1.0    -13.0622920919   -6.5378817951    6.8299619535 
H      1.0    -13.1231295916   -7.2427603200    8.4494571337 
 $END


