 $CONTRL 
  SCFTYP=RHF EXETYP=RUN RUNTYP=OPTIMIZE 
! B3LYP in US means B3LYP5 in firefly
  DFTTYP=B3LYP
  ICHARG=0 MULT=1 
  ITOL=30 ICUT=11
  INTTYP=HONDO MAXIT=200
  d5=.t.
  MOLPLT=.t.
! DUNNING DZP needs spherical d-functions
! ISPHER instead of D5 in firefly
!  ISPHER=1 
  NZVAR=75
 $END

 !d5 d5=.f.$end
!$DFT
! NRAD=96
!$END

 $ZMAT DLC=.t. AUTO=.t. $END
 $STATPT NSTEP=100 $END

 $SYSTEM TIMLIM=2000 MWORDS=100 $END

 $GUESS GUESS=HUCKEL $END

 $basis 
! name from lib-file
   gbasis=N31 ngauss=6 npfunc=1 ndfunc=1 nffunc=1 
 $end

 $SCF 
  DIIS=.t. DIRSCF=.t. 
! in firefly nconv=6
! density convergency criterium for SCF
!   conv=1D-6 
!   npunch=2
 $END

 $DATA
ct.out
C1
C      6.0     -5.4856212760   -4.0681342674    3.1814429242 
H      1.0     -5.7352283005   -5.0281787232    2.6677096008 
H      1.0     -5.7953970753   -3.2383819527    2.5092869273 
H      1.0     -4.3772021584   -4.0271715105    3.3138747316 
C      6.0     -6.1938738554   -3.9741126485    4.5624402337 
H      1.0     -5.9482495506   -3.0014086826    5.0542177864 
H      1.0     -5.8083024943   -4.7817348708    5.2333280337 
C      6.0     -7.7414693853   -4.1165107248    4.5285223677 
H      1.0     -8.0525626606   -5.0117508111    3.9419060750 
O      8.0     -8.3925021016   -2.9238626812    3.8802377095 
O      8.0     -8.2497699106   -3.0915642776    2.3708303298 
H      1.0     -9.1390304395   -2.7299025683    2.0925693837 
C      6.0     -8.3542319570   -4.1385330305    5.9200312928 
H      1.0     -8.0620433403   -3.3120642724    6.6011589049 
C      6.0     -9.2218596656   -5.1129228273    6.3528410995 
H      1.0     -9.5026447995   -5.9266692385    5.6515220126 
C      6.0     -9.7989213209   -5.1344964579    7.7138390803 
H      1.0     -9.4967917314   -4.2954058831    8.3764912580 
C      6.0    -10.6624666559   -6.0809474757    8.2237618278 
H      1.0    -11.0105602140   -5.9359141880    9.2698380604 
C      6.0    -11.2341558039   -7.3071545913    7.5175161218 
H      1.0    -10.9509723558   -8.2203536273    8.0985444668 
H      1.0    -10.7988283511   -7.4294022230    6.4997570418 
C      6.0    -12.7927094099   -7.2531156700    7.4168975867 
H      1.0    -13.1935222556   -8.1872545020    6.9534300434 
H      1.0    -13.1243916850   -6.3852659842    6.7974274727 
H      1.0    -13.2558072922   -7.1460048893    8.4285605259 
 $END


