 $CONTRL 
  SCFTYP=RHF EXETYP=RUN RUNTYP=ENERGY
! B3LYP in US means B3LYP5 in firefly
  DFTTYP=B3LYP5
  ICHARG=0 MULT=1 
  ITOL=30 ICUT=11
  INTTYP=HONDO MAXIT=200
  d5=.t.
  MOLPLT=.t.
! DUNNING DZP needs spherical d-functions
! ISPHER instead of D5 in firefly
!  ISPHER=1 
 $END

 $d5 d5=.f. $end
!$DFT
! NRAD=96
!$END

 $SYSTEM TIMLIM=2000 MWORDS=100 $END

 $ELPOT IEPOT=1 WHERE=PDC OUTPUT=PUNCH $END
 $PDC PTSEL=CHELPG CONSTR=NONE $END

 $GUESS GUESS=HUCKEL $END

 $basis 
! name from lib-file
   gbasis=N31 ngauss=6 npfunc=1 ndfunc=1 nffunc=1 
 $end

 $SCF 
  DIIS=.t. DIRSCF=.t. 
! in firefly nconv=6
! density convergency criterium for SCF
!   conv=1D-6 
!   npunch=2
 $END

 $DATA
tt-631.out
C1
C      6.0     -5.6561549222   -3.9503397420    3.2934995473 
H      1.0     -6.0353138706   -3.2062290663    2.5912444052 
H      1.0     -4.5847034301   -3.7768303485    3.4364478201 
H      1.0     -5.7772397456   -4.9348053934    2.8292127660 
C      6.0     -6.3883392096   -3.8756957021    4.6379717381 
H      1.0     -6.2702743256   -2.8754273495    5.0728332799 
H      1.0     -5.9302305073   -4.5787785300    5.3451758357 
C      6.0     -7.8925646876   -4.1943431884    4.5974190460 
H      1.0     -8.0607778834   -5.1763482389    4.1357718181 
O      8.0     -8.6407787788   -3.2126038635    3.8473131638 
O      8.0     -8.4708466373   -3.4917196246    2.4285171787 
H      1.0     -9.3783316010   -3.7505462128    2.2054472549 
C      6.0     -8.5017238557   -4.1582994856    5.9713735299 
H      1.0     -8.4460441556   -3.2019762447    6.4894290818 
C      6.0     -9.0672835400   -5.2136104401    6.5755105695 
H      1.0     -9.1150732158   -6.1646765497    6.0448834472 
C      6.0     -9.6272315765   -5.1950733347    7.9170755774 
H      1.0     -9.5831708521   -4.2459159583    8.4509051278 
C      6.0    -10.1821180170   -6.2584846679    8.5184636858 
H      1.0    -10.2235133309   -7.2040361299    7.9754985665 
C      6.0    -10.7745887765   -6.2665595409    9.8975700422 
H      1.0    -10.6441751934   -5.2822482807   10.3616645626 
H      1.0    -10.2236963089   -6.9830139040   10.5239090488 
C      6.0    -12.2644585346   -6.6550288522    9.9053286602 
H      1.0    -12.6563125236   -6.6829729260   10.9267567667 
H      1.0    -12.4164702987   -7.6446762526    9.4615508264 
H      1.0    -12.8583165503   -5.9377135901    9.3310244513 
 $END


