 $CONTRL 
  SCFTYP=RHF EXETYP=RUN RUNTYP=OPTIMIZE 
! B3LYP in US means B3LYP5 in firefly
  DFTTYP=B3LYP
  ICHARG=0 MULT=1 
  ITOL=30 ICUT=11
  INTTYP=HONDO MAXIT=200
  d5=.t.
  MOLPLT=.t.
! DUNNING DZP needs spherical d-functions
! ISPHER instead of D5 in firefly
!  ISPHER=1 
  NZVAR=75
 $END

 !d5 d5=.f.$end
!$DFT
! NRAD=96
!$END

 $ZMAT DLC=.t. AUTO=.t. $END
 $STATPT NSTEP=100 $END

 $SYSTEM TIMLIM=2000 MWORDS=100 $END

 $GUESS GUESS=HUCKEL $END

 $basis 
! name from lib-file
   gbasis=N31 ngauss=6 npfunc=1 ndfunc=1 nffunc=1 
 $end

 $SCF 
  DIIS=.t. DIRSCF=.t. 
! in firefly nconv=6
! density convergency criterium for SCF
!   conv=1D-6 
!   npunch=2
 $END

 $DATA
tt.out
C1
C      6.0     -5.6259431399   -3.8476347466    3.1835674154 
H      1.0     -6.1116419776   -3.1744275995    2.4439788992 
H      1.0     -4.5460554231   -3.5733064016    3.2635770576 
H      1.0     -5.6878640570   -4.8880667816    2.7816412604 
C      6.0     -6.3093266007   -3.7461199426    4.5763816097 
H      1.0     -6.2615026521   -2.6945278132    4.9509945960 
H      1.0     -5.7499383333   -4.3762411866    5.3120249350 
C      6.0     -7.7934648663   -4.2048111401    4.6266656981 
H      1.0     -7.9230571637   -5.2093186784    4.1612226559 
O      8.0     -8.6909401160   -3.2589412013    3.8724800496 
O      8.0     -8.5411777910   -3.5758881485    2.3874663873 
H      1.0     -9.4915574640   -3.4449081192    2.1070006568 
C      6.0     -8.3619495991   -4.1822770110    6.0367108355 
H      1.0     -8.2001403626   -3.2526868599    6.6213845050 
C      6.0     -9.0396382069   -5.2386666818    6.5959316785 
H      1.0     -9.1962455868   -6.1632018743    5.9969067019 
C      6.0     -9.5831520598   -5.2407107128    7.9694915984 
H      1.0     -9.4349668163   -4.3158283558    8.5693754245 
C      6.0    -10.2493432276   -6.3089329417    8.5223540846 
H      1.0    -10.3932164156   -7.2254756880    7.9059144985 
C      6.0    -10.8386522849   -6.3387608092    9.9265636830 
H      1.0    -10.5926915096   -5.3890653380   10.4590719811 
H      1.0    -10.3642301032   -7.1693475773   10.5079961382 
C      6.0    -12.3848328297   -6.5618050486    9.9252092090 
H      1.0    -12.7770780812   -6.6314812803   10.9688490418 
H      1.0    -12.6531977519   -7.5085585884    9.3946821979 
H      1.0    -12.9102133195   -5.7220173835    9.4097965776 
 $END


