 $CONTRL 
  SCFTYP=RHF EXETYP=RUN RUNTYP=RSURFACE
  DFTTYP=B3LYP5
  ICHARG=0 MULT=1 
  ITOL=30 ICUT=11
  INTTYP=HONDO MAXIT=200
  d5=.t.
  NZVAR=75
 $END

 $statpt opttol=1e-5 nstep=2000
! frozen internal coordinate
 method=gdiis nstep=2000 ifreez(1)=1
 $end

 $zmat
  dlc=.t. auto=.t.
  ifzmat(1)=3,13,15,17,19
!  irzmat(1)=3,34,33,32,27
  scan=.t.
  dlctol=1d-7 orttol=1d-10 ifdmod=2
 $end

 $surf disp1=10 ndisp1=37 reuse=.t. $end

!$d5 d5=.f. $end

 $SYSTEM TIMLIM=2000 MWORDS=100 $END

 $GUESS GUESS=HUCKEL $END

 $basis 
! name from lib-file
   gbasis=N31 ngauss=6 npfunc=1 ndfunc=1 nffunc=1 
 $end

 $SCF
  DIIS=.t. DIRSCF=.t.
 $END

 $DATA
tt2.pdb
C1
 C           6.0  -5.7940000000  -3.9457930836   3.2098072736
 H           1.0  -6.1916456027  -3.1860039506   2.5346437991
 H           1.0  -4.7171159578  -3.7805251573   3.3207918569
 H           1.0  -5.9357267602  -4.9209461913   2.7312324179
 C           6.0  -6.4810454083  -3.8927575501   4.5793316517
 H           1.0  -6.3356625990  -2.9037318378   5.0321745021
 H           1.0  -6.0092988926  -4.6176172976   5.2554308443
 C           6.0  -7.9903589106  -4.1912995506   4.5807384312
 H           1.0  -8.1866886325  -5.1647413666   4.1114795040
 O           8.0  -8.7474420564  -3.1886735352   3.8671282750
 O           8.0  -8.6309013406  -3.4547129997   2.4399336697
 H           1.0  -9.5501385521  -3.6955566722   2.2456421972
 C           6.0  -8.5573977656  -4.1660951580   5.9734184046
 H           1.0  -8.4731016899  -3.2175608197   6.5024079094
 C           6.0  -9.1223233348  -5.2214218543   6.5787966694
 H           1.0  -9.2000268877  -6.1640305140   6.0360833584
 C           6.0  -9.6464032982  -5.2134195764   7.9352542671
 H           1.0  -9.5707713382  -4.2732427901   8.4819479012
 C           6.0 -10.2065400426  -6.2754170859   8.5348755135
 H           1.0 -10.2808426545  -7.2116312671   7.9787486322
 C           6.0 -10.7681786997  -6.2921194739   9.9271924095
 H           1.0 -10.6046261412  -5.3183613765  10.4036385915
 H           1.0 -10.2207578040  -7.0313750702  10.5301898468
 C           6.0 -12.2667573087  -6.6460448215   9.9621411254
 H           1.0 -12.6363537794  -6.6824737617  10.9919102933
 H           1.0 -12.4519964968  -7.6244053401   9.5053246391
 H           1.0 -12.8561894577  -5.9050745155   9.4132778545
 $END


